5 5
1 33 0 57 3 52 4 9 2 54
2 1 3 44 1 99 4 75 0 98
3 80 1 9 2 32 0 15 4 12
3 97 2 78 0 57 4 8 1 72
3 27 4 62 0 12 1 65 2 42
-1
0 1 2 3 5
0 2 3 5
0 1 3 5
0 2 5
0 1 2 4 5
-2
38 92 196 278
67 225 485
126 121 211
220 460
28 141 219 330

413 9
1 22 17 13 9
0 7 11 23 19
5 16 12 4 24
6 15 20 10 2
21 8 3 18 14
